local_stuff/loop_inv_stuff/loop_inv/repo/boogie/3.out
STDOUT:
boogie/3.bpl(17,9): Error: this assertion could not be proved
Execution trace:
    boogie/3.bpl(6,11): anon0
    boogie/3.bpl(8,9): anon4_LoopHead
    boogie/3.bpl(8,9): anon4_LoopDone

Boogie program verifier finished with 0 verified, 1 error


STDERR:
